p cnf 41 30
-8 -15 -31 0
-34 3 -41 0
38 15 1 0
-40 -7 23 0
41 15 -4 0
-1 -2 -3 -4 -5 -6 -7 -8 -9 -10 -11 -12 -13 -14 -15 -16 -17 -18 -19 -20 -21 -22 -23 -24 -25 -26 -27 -28 -29 -30 -31 -32 -33 -34 -35 -36 -37 -38 -39 -40 -41 0
35 -41 19 0
-24 29 -28 0
5 -1 -15 0
-33 19 17 0
-29 -39 -40 0
11 9 38 0
1 2 3 4 5 6 7 8 9 10 11 12 13 14 15 16 17 18 19 20 21 22 23 24 25 26 27 28 29 30 31 32 33 34 35 36 37 38 39 40 41 0
34 14 -23 0
6 -4 -23 0
-37 -2 -1 0
9 28 14 0
4 -5 20 0
-17 13 -8 0
27 -7 -32 0
-25 14 27 0
30 2 -40 0
10 -9 40 0
-17 33 -9 0
-32 24 -15 0
36 -28 10 0
6 -37 -10 0
-15 -27 34 0
12 -31 13 0
-5 16 -28 0
